% Generado automaticamente desde C:/Users/andres/Desktop/SEPTIMO SEMESTRE/ADAII/proyecto_final/Proyecto-Optimizacion-ADA2/BateriaPruebas_2025_2_P2-txt/Prueba25.txt

n = 200;
m = 3;
ct = 100.0;
maxMovs = 125.0;
v = [0.102, 0.305, 0.602];
p = [16, 66, 118];
s = [| 7, 9, 0 | 20, 8, 38 | 15, 46, 57 |];
